benchmarks/ising_models/Random/J=1/70nodes_5deg_random_graph.wcnf
p wcnf 239 676
w -2 0.367879 0
w 2 2.718282 0
w -3 0.367879 0
w 3 2.718282 0
w -4 0.367879 0
w 4 2.718282 0
w -5 0.367879 0
w 5 2.718282 0
w -6 0.367879 0
w 6 2.718282 0
w -8 0.367879 0
w 8 2.718282 0
w -9 0.367879 0
w 9 2.718282 0
w -10 0.367879 0
w 10 2.718282 0
w -11 0.367879 0
w 11 2.718282 0
w -12 0.367879 0
w 12 2.718282 0
w -13 0.367879 0
w 13 2.718282 0
w -15 0.367879 0
w 15 2.718282 0
w -16 0.367879 0
w 16 2.718282 0
w -17 0.367879 0
w 17 2.718282 0
w -18 0.367879 0
w 18 2.718282 0
w -19 0.367879 0
w 19 2.718282 0
w -20 0.367879 0
w 20 2.718282 0
w -22 0.367879 0
w 22 2.718282 0
w -23 0.367879 0
w 23 2.718282 0
w -24 0.367879 0
w 24 2.718282 0
w -25 0.367879 0
w 25 2.718282 0
w -26 0.367879 0
w 26 2.718282 0
w -27 0.367879 0
w 27 2.718282 0
w -29 0.367879 0
w 29 2.718282 0
w -30 0.367879 0
w 30 2.718282 0
w -31 0.367879 0
w 31 2.718282 0
w -32 0.367879 0
w 32 2.718282 0
w -33 0.367879 0
w 33 2.718282 0
w -35 0.367879 0
w 35 2.718282 0
w -36 0.367879 0
w 36 2.718282 0
w -37 0.367879 0
w 37 2.718282 0
w -38 0.367879 0
w 38 2.718282 0
w -39 0.367879 0
w 39 2.718282 0
w -41 0.367879 0
w 41 2.718282 0
w -42 0.367879 0
w 42 2.718282 0
w -43 0.367879 0
w 43 2.718282 0
w -44 0.367879 0
w 44 2.718282 0
w -45 0.367879 0
w 45 2.718282 0
w -46 0.367879 0
w 46 2.718282 0
w -47 0.367879 0
w 47 2.718282 0
w -49 0.367879 0
w 49 2.718282 0
w -50 0.367879 0
w 50 2.718282 0
w -52 0.367879 0
w 52 2.718282 0
w -53 0.367879 0
w 53 2.718282 0
w -54 0.367879 0
w 54 2.718282 0
w -55 0.367879 0
w 55 2.718282 0
w -56 0.367879 0
w 56 2.718282 0
w -57 0.367879 0
w 57 2.718282 0
w -58 0.367879 0
w 58 2.718282 0
w -60 0.367879 0
w 60 2.718282 0
w -61 0.367879 0
w 61 2.718282 0
w -62 0.367879 0
w 62 2.718282 0
w -64 0.367879 0
w 64 2.718282 0
w -65 0.367879 0
w 65 2.718282 0
w -66 0.367879 0
w 66 2.718282 0
w -68 0.367879 0
w 68 2.718282 0
w -69 0.367879 0
w 69 2.718282 0
w -70 0.367879 0
w 70 2.718282 0
w -71 0.367879 0
w 71 2.718282 0
w -73 0.367879 0
w 73 2.718282 0
w -74 0.367879 0
w 74 2.718282 0
w -75 0.367879 0
w 75 2.718282 0
w -76 0.367879 0
w 76 2.718282 0
w -77 0.367879 0
w 77 2.718282 0
w -79 0.367879 0
w 79 2.718282 0
w -80 0.367879 0
w 80 2.718282 0
w -82 0.367879 0
w 82 2.718282 0
w -83 0.367879 0
w 83 2.718282 0
w -84 0.367879 0
w 84 2.718282 0
w -85 0.367879 0
w 85 2.718282 0
w -86 0.367879 0
w 86 2.718282 0
w -88 0.367879 0
w 88 2.718282 0
w -89 0.367879 0
w 89 2.718282 0
w -90 0.367879 0
w 90 2.718282 0
w -92 0.367879 0
w 92 2.718282 0
w -93 0.367879 0
w 93 2.718282 0
w -94 0.367879 0
w 94 2.718282 0
w -95 0.367879 0
w 95 2.718282 0
w -97 0.367879 0
w 97 2.718282 0
w -98 0.367879 0
w 98 2.718282 0
w -99 0.367879 0
w 99 2.718282 0
w -100 0.367879 0
w 100 2.718282 0
w -101 0.367879 0
w 101 2.718282 0
w -102 0.367879 0
w 102 2.718282 0
w -104 0.367879 0
w 104 2.718282 0
w -105 0.367879 0
w 105 2.718282 0
w -107 0.367879 0
w 107 2.718282 0
w -108 0.367879 0
w 108 2.718282 0
w -109 0.367879 0
w 109 2.718282 0
w -111 0.367879 0
w 111 2.718282 0
w -112 0.367879 0
w 112 2.718282 0
w -113 0.367879 0
w 113 2.718282 0
w -114 0.367879 0
w 114 2.718282 0
w -116 0.367879 0
w 116 2.718282 0
w -117 0.367879 0
w 117 2.718282 0
w -119 0.367879 0
w 119 2.718282 0
w -120 0.367879 0
w 120 2.718282 0
w -121 0.367879 0
w 121 2.718282 0
w -122 0.367879 0
w 122 2.718282 0
w -124 0.367879 0
w 124 2.718282 0
w -126 0.367879 0
w 126 2.718282 0
w -127 0.367879 0
w 127 2.718282 0
w -128 0.367879 0
w 128 2.718282 0
w -131 0.367879 0
w 131 2.718282 0
w -132 0.367879 0
w 132 2.718282 0
w -133 0.367879 0
w 133 2.718282 0
w -134 0.367879 0
w 134 2.718282 0
w -135 0.367879 0
w 135 2.718282 0
w -136 0.367879 0
w 136 2.718282 0
w -139 0.367879 0
w 139 2.718282 0
w -140 0.367879 0
w 140 2.718282 0
w -142 0.367879 0
w 142 2.718282 0
w -143 0.367879 0
w 143 2.718282 0
w -145 0.367879 0
w 145 2.718282 0
w -147 0.367879 0
w 147 2.718282 0
w -148 0.367879 0
w 148 2.718282 0
w -150 0.367879 0
w 150 2.718282 0
w -151 0.367879 0
w 151 2.718282 0
w -152 0.367879 0
w 152 2.718282 0
w -153 0.367879 0
w 153 2.718282 0
w -154 0.367879 0
w 154 2.718282 0
w -156 0.367879 0
w 156 2.718282 0
w -157 0.367879 0
w 157 2.718282 0
w -158 0.367879 0
w 158 2.718282 0
w -160 0.367879 0
w 160 2.718282 0
w -161 0.367879 0
w 161 2.718282 0
w -162 0.367879 0
w 162 2.718282 0
w -164 0.367879 0
w 164 2.718282 0
w -166 0.367879 0
w 166 2.718282 0
w -167 0.367879 0
w 167 2.718282 0
w -169 0.367879 0
w 169 2.718282 0
w -170 0.367879 0
w 170 2.718282 0
w -171 0.367879 0
w 171 2.718282 0
w -172 0.367879 0
w 172 2.718282 0
w -173 0.367879 0
w 173 2.718282 0
w -175 0.367879 0
w 175 2.718282 0
w -176 0.367879 0
w 176 2.718282 0
w -178 0.367879 0
w 178 2.718282 0
w -179 0.367879 0
w 179 2.718282 0
w -180 0.367879 0
w 180 2.718282 0
w -181 0.367879 0
w 181 2.718282 0
w -183 0.367879 0
w 183 2.718282 0
w -186 0.367879 0
w 186 2.718282 0
w -187 0.367879 0
w 187 2.718282 0
w -188 0.367879 0
w 188 2.718282 0
w -189 0.367879 0
w 189 2.718282 0
w -191 0.367879 0
w 191 2.718282 0
w -192 0.367879 0
w 192 2.718282 0
w -194 0.367879 0
w 194 2.718282 0
w -195 0.367879 0
w 195 2.718282 0
w -197 0.367879 0
w 197 2.718282 0
w -198 0.367879 0
w 198 2.718282 0
w -200 0.367879 0
w 200 2.718282 0
w -202 0.367879 0
w 202 2.718282 0
w -203 0.367879 0
w 203 2.718282 0
w -205 0.367879 0
w 205 2.718282 0
w -206 0.367879 0
w 206 2.718282 0
w -208 0.367879 0
w 208 2.718282 0
w -211 0.367879 0
w 211 2.718282 0
w -213 0.367879 0
w 213 2.718282 0
w -214 0.367879 0
w 214 2.718282 0
w -215 0.367879 0
w 215 2.718282 0
w -216 0.367879 0
w 216 2.718282 0
w -221 0.367879 0
w 221 2.718282 0
w -222 0.367879 0
w 222 2.718282 0
w -224 0.367879 0
w 224 2.718282 0
w -228 0.367879 0
w 228 2.718282 0
w -230 0.367879 0
w 230 2.718282 0
w -232 0.367879 0
w 232 2.718282 0
2 1 63 0
2 -1 -63 0
-2 1 -63 0
-2 -1 63 0
3 1 106 0
3 -1 -106 0
-3 1 -106 0
-3 -1 106 0
4 1 110 0
4 -1 -110 0
-4 1 -110 0
-4 -1 110 0
5 1 149 0
5 -1 -149 0
-5 1 -149 0
-5 -1 149 0
6 1 233 0
6 -1 -233 0
-6 1 -233 0
-6 -1 233 0
8 7 177 0
8 -7 -177 0
-8 7 -177 0
-8 -7 177 0
9 7 190 0
9 -7 -190 0
-9 7 -190 0
-9 -7 190 0
10 7 196 0
10 -7 -196 0
-10 7 -196 0
-10 -7 196 0
11 7 212 0
11 -7 -212 0
-11 7 -212 0
-11 -7 212 0
12 7 219 0
12 -7 -219 0
-12 7 -219 0
-12 -7 219 0
13 7 225 0
13 -7 -225 0
-13 7 -225 0
-13 -7 225 0
15 14 63 0
15 -14 -63 0
-15 14 -63 0
-15 -14 63 0
16 14 123 0
16 -14 -123 0
-16 14 -123 0
-16 -14 123 0
17 14 125 0
17 -14 -125 0
-17 14 -125 0
-17 -14 125 0
18 14 138 0
18 -14 -138 0
-18 14 -138 0
-18 -14 138 0
19 14 199 0
19 -14 -199 0
-19 14 -199 0
-19 -14 199 0
20 14 225 0
20 -14 -225 0
-20 14 -225 0
-20 -14 225 0
22 21 51 0
22 -21 -51 0
-22 21 -51 0
-22 -21 51 0
23 21 149 0
23 -21 -149 0
-23 21 -149 0
-23 -21 149 0
24 21 155 0
24 -21 -155 0
-24 21 -155 0
-24 -21 155 0
25 21 193 0
25 -21 -193 0
-25 21 -193 0
-25 -21 193 0
26 21 233 0
26 -21 -233 0
-26 21 -233 0
-26 -21 233 0
27 21 237 0
27 -21 -237 0
-27 21 -237 0
-27 -21 237 0
29 28 110 0
29 -28 -110 0
-29 28 -110 0
-29 -28 110 0
30 28 118 0
30 -28 -118 0
-30 28 -118 0
-30 -28 118 0
31 28 149 0
31 -28 -149 0
-31 28 -149 0
-31 -28 149 0
32 28 226 0
32 -28 -226 0
-32 28 -226 0
-32 -28 226 0
33 28 234 0
33 -28 -234 0
-33 28 -234 0
-33 -28 234 0
35 34 137 0
35 -34 -137 0
-35 34 -137 0
-35 -34 137 0
36 34 182 0
36 -34 -182 0
-36 34 -182 0
-36 -34 182 0
37 34 201 0
37 -34 -201 0
-37 34 -201 0
-37 -34 201 0
38 34 204 0
38 -34 -204 0
-38 34 -204 0
-38 -34 204 0
39 34 225 0
39 -34 -225 0
-39 34 -225 0
-39 -34 225 0
41 40 91 0
41 -40 -91 0
-41 40 -91 0
-41 -40 91 0
42 40 137 0
42 -40 -137 0
-42 40 -137 0
-42 -40 137 0
43 40 159 0
43 -40 -159 0
-43 40 -159 0
-43 -40 159 0
44 40 185 0
44 -40 -185 0
-44 40 -185 0
-44 -40 185 0
45 40 209 0
45 -40 -209 0
-45 40 -209 0
-45 -40 209 0
46 40 229 0
46 -40 -229 0
-46 40 -229 0
-46 -40 229 0
47 40 234 0
47 -40 -234 0
-47 40 -234 0
-47 -40 234 0
49 48 123 0
49 -48 -123 0
-49 48 -123 0
-49 -48 123 0
50 48 141 0
50 -48 -141 0
-50 48 -141 0
-50 -48 141 0
52 51 67 0
52 -51 -67 0
-52 51 -67 0
-52 -51 67 0
53 51 123 0
53 -51 -123 0
-53 51 -123 0
-53 -51 123 0
54 51 130 0
54 -51 -130 0
-54 51 -130 0
-54 -51 130 0
55 51 165 0
55 -51 -165 0
-55 51 -165 0
-55 -51 165 0
56 51 199 0
56 -51 -199 0
-56 51 -199 0
-56 -51 199 0
57 51 209 0
57 -51 -209 0
-57 51 -209 0
-57 -51 209 0
58 51 218 0
58 -51 -218 0
-58 51 -218 0
-58 -51 218 0
60 59 146 0
60 -59 -146 0
-60 59 -146 0
-60 -59 146 0
61 59 174 0
61 -59 -174 0
-61 59 -174 0
-61 -59 174 0
62 59 239 0
62 -59 -239 0
-62 59 -239 0
-62 -59 239 0
64 63 123 0
64 -63 -123 0
-64 63 -123 0
-64 -63 123 0
65 63 177 0
65 -63 -177 0
-65 63 -177 0
-65 -63 177 0
66 63 233 0
66 -63 -233 0
-66 63 -233 0
-66 -63 233 0
68 67 138 0
68 -67 -138 0
-68 67 -138 0
-68 -67 138 0
69 67 184 0
69 -67 -184 0
-69 67 -184 0
-69 -67 184 0
70 67 218 0
70 -67 -218 0
-70 67 -218 0
-70 -67 218 0
71 67 226 0
71 -67 -226 0
-71 67 -226 0
-71 -67 226 0
73 72 123 0
73 -72 -123 0
-73 72 -123 0
-73 -72 123 0
74 72 199 0
74 -72 -199 0
-74 72 -199 0
-74 -72 199 0
75 72 201 0
75 -72 -201 0
-75 72 -201 0
-75 -72 201 0
76 72 218 0
76 -72 -218 0
-76 72 -218 0
-76 -72 218 0
77 72 229 0
77 -72 -229 0
-77 72 -229 0
-77 -72 229 0
79 78 137 0
79 -78 -137 0
-79 78 -137 0
-79 -78 137 0
80 78 165 0
80 -78 -165 0
-80 78 -165 0
-80 -78 165 0
82 81 103 0
82 -81 -103 0
-82 81 -103 0
-82 -81 103 0
83 81 110 0
83 -81 -110 0
-83 81 -110 0
-83 -81 110 0
84 81 149 0
84 -81 -149 0
-84 81 -149 0
-84 -81 149 0
85 81 177 0
85 -81 -177 0
-85 81 -177 0
-85 -81 177 0
86 81 212 0
86 -81 -212 0
-86 81 -212 0
-86 -81 212 0
88 87 149 0
88 -87 -149 0
-88 87 -149 0
-88 -87 149 0
89 87 204 0
89 -87 -204 0
-89 87 -204 0
-89 -87 204 0
90 87 218 0
90 -87 -218 0
-90 87 -218 0
-90 -87 218 0
92 91 96 0
92 -91 -96 0
-92 91 -96 0
-92 -91 96 0
93 91 201 0
93 -91 -201 0
-93 91 -201 0
-93 -91 201 0
94 91 227 0
94 -91 -227 0
-94 91 -227 0
-94 -91 227 0
95 91 234 0
95 -91 -234 0
-95 91 -234 0
-95 -91 234 0
97 96 177 0
97 -96 -177 0
-97 96 -177 0
-97 -96 177 0
98 96 185 0
98 -96 -185 0
-98 96 -185 0
-98 -96 185 0
99 96 201 0
99 -96 -201 0
-99 96 -201 0
-99 -96 201 0
100 96 212 0
100 -96 -212 0
-100 96 -212 0
-100 -96 212 0
101 96 219 0
101 -96 -219 0
-101 96 -219 0
-101 -96 219 0
102 96 225 0
102 -96 -225 0
-102 96 -225 0
-102 -96 225 0
104 103 165 0
104 -103 -165 0
-104 103 -165 0
-104 -103 165 0
105 103 196 0
105 -103 -196 0
-105 103 -196 0
-105 -103 196 0
107 106 146 0
107 -106 -146 0
-107 106 -146 0
-107 -106 146 0
108 106 201 0
108 -106 -201 0
-108 106 -201 0
-108 -106 201 0
109 106 235 0
109 -106 -235 0
-109 106 -235 0
-109 -106 235 0
111 110 141 0
111 -110 -141 0
-111 110 -141 0
-111 -110 141 0
112 110 190 0
112 -110 -190 0
-112 110 -190 0
-112 -110 190 0
113 110 199 0
113 -110 -199 0
-113 110 -199 0
-113 -110 199 0
114 110 209 0
114 -110 -209 0
-114 110 -209 0
-114 -110 209 0
116 115 130 0
116 -115 -130 0
-116 115 -130 0
-116 -115 130 0
117 115 168 0
117 -115 -168 0
-117 115 -168 0
-117 -115 168 0
119 118 149 0
119 -118 -149 0
-119 118 -149 0
-119 -118 149 0
120 118 163 0
120 -118 -163 0
-120 118 -163 0
-120 -118 163 0
121 118 219 0
121 -118 -219 0
-121 118 -219 0
-121 -118 219 0
122 118 227 0
122 -118 -227 0
-122 118 -227 0
-122 -118 227 0
124 123 196 0
124 -123 -196 0
-124 123 -196 0
-124 -123 196 0
126 125 155 0
126 -125 -155 0
-126 125 -155 0
-126 -125 155 0
127 125 177 0
127 -125 -177 0
-127 125 -177 0
-127 -125 177 0
128 125 204 0
128 -125 -204 0
-128 125 -204 0
-128 -125 204 0
131 130 137 0
131 -130 -137 0
-131 130 -137 0
-131 -130 137 0
132 130 149 0
132 -130 -149 0
-132 130 -149 0
-132 -130 149 0
133 130 165 0
133 -130 -165 0
-133 130 -165 0
-133 -130 165 0
134 130 182 0
134 -130 -182 0
-134 130 -182 0
-134 -130 182 0
135 130 218 0
135 -130 -218 0
-135 130 -218 0
-135 -130 218 0
136 130 238 0
136 -130 -238 0
-136 130 -238 0
-136 -130 238 0
139 138 146 0
139 -138 -146 0
-139 138 -146 0
-139 -138 146 0
140 138 220 0
140 -138 -220 0
-140 138 -220 0
-140 -138 220 0
142 141 182 0
142 -141 -182 0
-142 141 -182 0
-142 -141 182 0
143 141 184 0
143 -141 -184 0
-143 141 -184 0
-143 -141 184 0
145 144 163 0
145 -144 -163 0
-145 144 -163 0
-145 -144 163 0
147 146 165 0
147 -146 -165 0
-147 146 -165 0
-147 -146 165 0
148 146 209 0
148 -146 -209 0
-148 146 -209 0
-148 -146 209 0
150 149 163 0
150 -149 -163 0
-150 149 -163 0
-150 -149 163 0
151 149 223 0
151 -149 -223 0
-151 149 -223 0
-151 -149 223 0
152 149 225 0
152 -149 -225 0
-152 149 -225 0
-152 -149 225 0
153 149 233 0
153 -149 -233 0
-153 149 -233 0
-153 -149 233 0
154 149 239 0
154 -149 -239 0
-154 149 -239 0
-154 -149 239 0
156 155 229 0
156 -155 -229 0
-156 155 -229 0
-156 -155 229 0
157 155 233 0
157 -155 -233 0
-157 155 -233 0
-157 -155 233 0
158 155 237 0
158 -155 -237 0
-158 155 -237 0
-158 -155 237 0
160 159 174 0
160 -159 -174 0
-160 159 -174 0
-160 -159 174 0
161 159 212 0
161 -159 -212 0
-161 159 -212 0
-161 -159 212 0
162 159 233 0
162 -159 -233 0
-162 159 -233 0
-162 -159 233 0
164 163 234 0
164 -163 -234 0
-164 163 -234 0
-164 -163 234 0
166 165 190 0
166 -165 -190 0
-166 165 -190 0
-166 -165 190 0
167 165 238 0
167 -165 -238 0
-167 165 -238 0
-167 -165 238 0
169 168 193 0
169 -168 -193 0
-169 168 -193 0
-169 -168 193 0
170 168 219 0
170 -168 -219 0
-170 168 -219 0
-170 -168 219 0
171 168 223 0
171 -168 -223 0
-171 168 -223 0
-171 -168 223 0
172 168 234 0
172 -168 -234 0
-172 168 -234 0
-172 -168 234 0
173 168 239 0
173 -168 -239 0
-173 168 -239 0
-173 -168 239 0
175 174 212 0
175 -174 -212 0
-175 174 -212 0
-175 -174 212 0
176 174 227 0
176 -174 -227 0
-176 174 -227 0
-176 -174 227 0
178 177 212 0
178 -177 -212 0
-178 177 -212 0
-178 -177 212 0
179 177 225 0
179 -177 -225 0
-179 177 -225 0
-179 -177 225 0
180 177 227 0
180 -177 -227 0
-180 177 -227 0
-180 -177 227 0
181 177 238 0
181 -177 -238 0
-181 177 -238 0
-181 -177 238 0
183 182 209 0
183 -182 -209 0
-183 182 -209 0
-183 -182 209 0
186 185 199 0
186 -185 -199 0
-186 185 -199 0
-186 -185 199 0
187 185 204 0
187 -185 -204 0
-187 185 -204 0
-187 -185 204 0
188 185 209 0
188 -185 -209 0
-188 185 -209 0
-188 -185 209 0
189 185 218 0
189 -185 -218 0
-189 185 -218 0
-189 -185 218 0
191 190 193 0
191 -190 -193 0
-191 190 -193 0
-191 -190 193 0
192 190 236 0
192 -190 -236 0
-192 190 -236 0
-192 -190 236 0
194 193 227 0
194 -193 -227 0
-194 193 -227 0
-194 -193 227 0
195 193 229 0
195 -193 -229 0
-195 193 -229 0
-195 -193 229 0
197 196 218 0
197 -196 -218 0
-197 196 -218 0
-197 -196 218 0
198 196 225 0
198 -196 -225 0
-198 196 -225 0
-198 -196 225 0
200 199 223 0
200 -199 -223 0
-200 199 -223 0
-200 -199 223 0
202 201 225 0
202 -201 -225 0
-202 201 -225 0
-202 -201 225 0
203 201 238 0
203 -201 -238 0
-203 201 -238 0
-203 -201 238 0
205 204 234 0
205 -204 -234 0
-205 204 -234 0
-205 -204 234 0
206 204 238 0
206 -204 -238 0
-206 204 -238 0
-206 -204 238 0
208 207 219 0
208 -207 -219 0
-208 207 -219 0
-208 -207 219 0
211 210 212 0
211 -210 -212 0
-211 210 -212 0
-211 -210 212 0
213 212 217 0
213 -212 -217 0
-213 212 -217 0
-213 -212 217 0
214 212 225 0
214 -212 -225 0
-214 212 -225 0
-214 -212 225 0
215 212 229 0
215 -212 -229 0
-215 212 -229 0
-215 -212 229 0
216 212 233 0
216 -212 -233 0
-216 212 -233 0
-216 -212 233 0
221 220 227 0
221 -220 -227 0
-221 220 -227 0
-221 -220 227 0
222 220 237 0
222 -220 -237 0
-222 220 -237 0
-222 -220 237 0
224 223 238 0
224 -223 -238 0
-224 223 -238 0
-224 -223 238 0
228 227 235 0
228 -227 -235 0
-228 227 -235 0
-228 -227 235 0
230 229 231 0
230 -229 -231 0
-230 229 -231 0
-230 -229 231 0
232 231 234 0
232 -231 -234 0
-232 231 -234 0
-232 -231 234 0
