benchmarks/ising_models/Random/J=1/70nodes_5deg_random_graph
ISING
70
2 2 2 2 2 2 2 2 2 2 2 2 2 2 2 2 2 2 2 2 2 2 2 2 2 2 2 2 2 2 2 2 2 2 2 2 2 2 2 2 2 2 2 2 2 2 2 2 2 2 2 2 2 2 2 2 2 2 2 2 2 2 2 2 2 2 2 2 2 2
0 169 1 1
2 0 10
2 0 19
2 0 20
2 0 32
2 0 63
2 1 39
2 1 43
2 1 45
2 1 52
2 1 55
2 1 58
2 2 10
2 2 23
2 2 24
2 2 28
2 2 46
2 2 58
2 3 8
2 3 32
2 3 33
2 3 44
2 3 63
2 3 67
2 4 20
2 4 22
2 4 32
2 4 59
2 4 64
2 5 27
2 5 40
2 5 47
2 5 48
2 5 58
2 6 16
2 6 27
2 6 34
2 6 42
2 6 50
2 6 61
2 6 64
2 7 23
2 7 29
2 8 11
2 8 23
2 8 26
2 8 36
2 8 46
2 8 50
2 8 54
2 9 31
2 9 38
2 9 69
2 10 23
2 10 39
2 10 63
2 11 28
2 11 41
2 11 54
2 11 59
2 12 23
2 12 46
2 12 47
2 12 54
2 12 61
2 13 27
2 13 36
2 14 18
2 14 20
2 14 32
2 14 39
2 14 52
2 15 32
2 15 48
2 15 54
2 16 17
2 16 47
2 16 60
2 16 64
2 17 39
2 17 42
2 17 47
2 17 52
2 17 55
2 17 58
2 18 36
2 18 45
2 19 31
2 19 47
2 19 65
2 20 29
2 20 43
2 20 46
2 20 50
2 21 26
2 21 37
2 22 32
2 22 35
2 22 55
2 22 60
2 23 45
2 24 33
2 24 39
2 24 48
2 26 27
2 26 32
2 26 36
2 26 40
2 26 54
2 26 68
2 28 31
2 28 56
2 29 40
2 29 41
2 30 35
2 31 36
2 31 50
2 32 35
2 32 57
2 32 58
2 32 63
2 32 69
2 33 61
2 33 63
2 33 67
2 34 38
2 34 52
2 34 63
2 35 64
2 36 43
2 36 68
2 37 44
2 37 55
2 37 57
2 37 64
2 37 69
2 38 52
2 38 60
2 39 52
2 39 58
2 39 60
2 39 68
2 40 50
2 42 46
2 42 48
2 42 50
2 42 54
2 43 44
2 43 66
2 44 60
2 44 61
2 45 54
2 45 58
2 46 57
2 47 58
2 47 68
2 48 64
2 48 68
2 49 55
2 51 52
2 52 53
2 52 58
2 52 61
2 52 63
2 56 60
2 56 67
2 57 68
2 60 65
2 61 62
2 62 64

4
 1.0 -1.0
 -1.0 1.0
4
 1.0 -1.0
 -1.0 1.0
4
 1.0 -1.0
 -1.0 1.0
4
 1.0 -1.0
 -1.0 1.0
4
 1.0 -1.0
 -1.0 1.0
4
 1.0 -1.0
 -1.0 1.0
4
 1.0 -1.0
 -1.0 1.0
4
 1.0 -1.0
 -1.0 1.0
4
 1.0 -1.0
 -1.0 1.0
4
 1.0 -1.0
 -1.0 1.0
4
 1.0 -1.0
 -1.0 1.0
4
 1.0 -1.0
 -1.0 1.0
4
 1.0 -1.0
 -1.0 1.0
4
 1.0 -1.0
 -1.0 1.0
4
 1.0 -1.0
 -1.0 1.0
4
 1.0 -1.0
 -1.0 1.0
4
 1.0 -1.0
 -1.0 1.0
4
 1.0 -1.0
 -1.0 1.0
4
 1.0 -1.0
 -1.0 1.0
4
 1.0 -1.0
 -1.0 1.0
4
 1.0 -1.0
 -1.0 1.0
4
 1.0 -1.0
 -1.0 1.0
4
 1.0 -1.0
 -1.0 1.0
4
 1.0 -1.0
 -1.0 1.0
4
 1.0 -1.0
 -1.0 1.0
4
 1.0 -1.0
 -1.0 1.0
4
 1.0 -1.0
 -1.0 1.0
4
 1.0 -1.0
 -1.0 1.0
4
 1.0 -1.0
 -1.0 1.0
4
 1.0 -1.0
 -1.0 1.0
4
 1.0 -1.0
 -1.0 1.0
4
 1.0 -1.0
 -1.0 1.0
4
 1.0 -1.0
 -1.0 1.0
4
 1.0 -1.0
 -1.0 1.0
4
 1.0 -1.0
 -1.0 1.0
4
 1.0 -1.0
 -1.0 1.0
4
 1.0 -1.0
 -1.0 1.0
4
 1.0 -1.0
 -1.0 1.0
4
 1.0 -1.0
 -1.0 1.0
4
 1.0 -1.0
 -1.0 1.0
4
 1.0 -1.0
 -1.0 1.0
4
 1.0 -1.0
 -1.0 1.0
4
 1.0 -1.0
 -1.0 1.0
4
 1.0 -1.0
 -1.0 1.0
4
 1.0 -1.0
 -1.0 1.0
4
 1.0 -1.0
 -1.0 1.0
4
 1.0 -1.0
 -1.0 1.0
4
 1.0 -1.0
 -1.0 1.0
4
 1.0 -1.0
 -1.0 1.0
4
 1.0 -1.0
 -1.0 1.0
4
 1.0 -1.0
 -1.0 1.0
4
 1.0 -1.0
 -1.0 1.0
4
 1.0 -1.0
 -1.0 1.0
4
 1.0 -1.0
 -1.0 1.0
4
 1.0 -1.0
 -1.0 1.0
4
 1.0 -1.0
 -1.0 1.0
4
 1.0 -1.0
 -1.0 1.0
4
 1.0 -1.0
 -1.0 1.0
4
 1.0 -1.0
 -1.0 1.0
4
 1.0 -1.0
 -1.0 1.0
4
 1.0 -1.0
 -1.0 1.0
4
 1.0 -1.0
 -1.0 1.0
4
 1.0 -1.0
 -1.0 1.0
4
 1.0 -1.0
 -1.0 1.0
4
 1.0 -1.0
 -1.0 1.0
4
 1.0 -1.0
 -1.0 1.0
4
 1.0 -1.0
 -1.0 1.0
4
 1.0 -1.0
 -1.0 1.0
4
 1.0 -1.0
 -1.0 1.0
4
 1.0 -1.0
 -1.0 1.0
4
 1.0 -1.0
 -1.0 1.0
4
 1.0 -1.0
 -1.0 1.0
4
 1.0 -1.0
 -1.0 1.0
4
 1.0 -1.0
 -1.0 1.0
4
 1.0 -1.0
 -1.0 1.0
4
 1.0 -1.0
 -1.0 1.0
4
 1.0 -1.0
 -1.0 1.0
4
 1.0 -1.0
 -1.0 1.0
4
 1.0 -1.0
 -1.0 1.0
4
 1.0 -1.0
 -1.0 1.0
4
 1.0 -1.0
 -1.0 1.0
4
 1.0 -1.0
 -1.0 1.0
4
 1.0 -1.0
 -1.0 1.0
4
 1.0 -1.0
 -1.0 1.0
4
 1.0 -1.0
 -1.0 1.0
4
 1.0 -1.0
 -1.0 1.0
4
 1.0 -1.0
 -1.0 1.0
4
 1.0 -1.0
 -1.0 1.0
4
 1.0 -1.0
 -1.0 1.0
4
 1.0 -1.0
 -1.0 1.0
4
 1.0 -1.0
 -1.0 1.0
4
 1.0 -1.0
 -1.0 1.0
4
 1.0 -1.0
 -1.0 1.0
4
 1.0 -1.0
 -1.0 1.0
4
 1.0 -1.0
 -1.0 1.0
4
 1.0 -1.0
 -1.0 1.0
4
 1.0 -1.0
 -1.0 1.0
4
 1.0 -1.0
 -1.0 1.0
4
 1.0 -1.0
 -1.0 1.0
4
 1.0 -1.0
 -1.0 1.0
4
 1.0 -1.0
 -1.0 1.0
4
 1.0 -1.0
 -1.0 1.0
4
 1.0 -1.0
 -1.0 1.0
4
 1.0 -1.0
 -1.0 1.0
4
 1.0 -1.0
 -1.0 1.0
4
 1.0 -1.0
 -1.0 1.0
4
 1.0 -1.0
 -1.0 1.0
4
 1.0 -1.0
 -1.0 1.0
4
 1.0 -1.0
 -1.0 1.0
4
 1.0 -1.0
 -1.0 1.0
4
 1.0 -1.0
 -1.0 1.0
4
 1.0 -1.0
 -1.0 1.0
4
 1.0 -1.0
 -1.0 1.0
4
 1.0 -1.0
 -1.0 1.0
4
 1.0 -1.0
 -1.0 1.0
4
 1.0 -1.0
 -1.0 1.0
4
 1.0 -1.0
 -1.0 1.0
4
 1.0 -1.0
 -1.0 1.0
4
 1.0 -1.0
 -1.0 1.0
4
 1.0 -1.0
 -1.0 1.0
4
 1.0 -1.0
 -1.0 1.0
4
 1.0 -1.0
 -1.0 1.0
4
 1.0 -1.0
 -1.0 1.0
4
 1.0 -1.0
 -1.0 1.0
4
 1.0 -1.0
 -1.0 1.0
4
 1.0 -1.0
 -1.0 1.0
4
 1.0 -1.0
 -1.0 1.0
4
 1.0 -1.0
 -1.0 1.0
4
 1.0 -1.0
 -1.0 1.0
4
 1.0 -1.0
 -1.0 1.0
4
 1.0 -1.0
 -1.0 1.0
4
 1.0 -1.0
 -1.0 1.0
4
 1.0 -1.0
 -1.0 1.0
4
 1.0 -1.0
 -1.0 1.0
4
 1.0 -1.0
 -1.0 1.0
4
 1.0 -1.0
 -1.0 1.0
4
 1.0 -1.0
 -1.0 1.0
4
 1.0 -1.0
 -1.0 1.0
4
 1.0 -1.0
 -1.0 1.0
4
 1.0 -1.0
 -1.0 1.0
4
 1.0 -1.0
 -1.0 1.0
4
 1.0 -1.0
 -1.0 1.0
4
 1.0 -1.0
 -1.0 1.0
4
 1.0 -1.0
 -1.0 1.0
4
 1.0 -1.0
 -1.0 1.0
4
 1.0 -1.0
 -1.0 1.0
4
 1.0 -1.0
 -1.0 1.0
4
 1.0 -1.0
 -1.0 1.0
4
 1.0 -1.0
 -1.0 1.0
4
 1.0 -1.0
 -1.0 1.0
4
 1.0 -1.0
 -1.0 1.0
4
 1.0 -1.0
 -1.0 1.0
4
 1.0 -1.0
 -1.0 1.0
4
 1.0 -1.0
 -1.0 1.0
4
 1.0 -1.0
 -1.0 1.0
4
 1.0 -1.0
 -1.0 1.0
4
 1.0 -1.0
 -1.0 1.0
4
 1.0 -1.0
 -1.0 1.0
4
 1.0 -1.0
 -1.0 1.0
4
 1.0 -1.0
 -1.0 1.0
4
 1.0 -1.0
 -1.0 1.0
4
 1.0 -1.0
 -1.0 1.0
4
 1.0 -1.0
 -1.0 1.0
4
 1.0 -1.0
 -1.0 1.0
4
 1.0 -1.0
 -1.0 1.0
4
 1.0 -1.0
 -1.0 1.0
4
 1.0 -1.0
 -1.0 1.0
4
 1.0 -1.0
 -1.0 1.0
4
 1.0 -1.0
 -1.0 1.0
